WARNING: for repeatability, setting FPU to use double precision
============================[ Problem Statistics ]=============================
|                                                                             |
|  Number of variables:           100                                         |
|  Number of clauses:             449                                         |
|  Parse time:                   0.00 s                                       |
|  Eliminated clauses:           0.00 Mb                                      |
|  Simplification time:          0.00 s                                       |
|                                                                             |
============================[ Search Statistics ]==============================
| Conflicts |          ORIGINAL         |          LEARNT          | Progress |
|           |    Vars  Clauses Literals |    Limit  Clauses Lit/Cl |          |
===============================================================================
|       100 |      96      445     1362 |      163      100      6 |  0.010 % |
===============================================================================
restarts              : 2
conflicts             : 170            (68466 /sec)
decisions             : 220            (0.00 % random) (88602 /sec)
propagations          : 3888           (1565848 /sec)
conflict literals     : 1114           (18.39 % deleted)
Memory used           : 13.00 MB
CPU time              : 0.002483 s

SATISFIABLE
